Src/bin/x64/Debug/burma14.tsp.dat
16,47 96,1 1
16,47 94,44 2

16,47 96,1 1
14,05 98,12 10

16,47 94,44 2
20,09 94,55 14

20,09 92,54 3
22,39 93,37 4

20,09 92,54 3
20,09 94,55 14

22,39 93,37 4
25,23 97,24 5

25,23 97,24 5
22 96,05 6

22 96,05 6
21,52 95,59 12

20,47 97,02 7
21,52 95,59 12

20,47 97,02 7
19,41 97,13 13

17,2 96,29 8
16,3 97,38 9

17,2 96,29 8
19,41 97,13 13

16,3 97,38 9
16,53 97,38 11

14,05 98,12 10
16,53 97,38 11

