Src/bin/x64/Debug/burma14.tsp.lp
\ENCODING=ISO-8859-1
\Problem name: ILOG.CPLEX

Minimize
 obj: 153 z(1,2) + 560 z(1,3) + 706 z(1,4) + 966 z(1,5) + 581 z(1,6)
      + 455 z(1,7) + 70 z(1,8) + 160 z(1,9) + 372 z(1,10) + 169 z(1,11)
      + 500 z(1,12) + 342 z(1,13) + 426 z(1,14) + 459 z(2,3) + 664 z(2,4)
      + 997 z(2,5) + 598 z(2,6) + 507 z(2,7) + 197 z(2,8) + 311 z(2,9)
      + 479 z(2,10) + 316 z(2,11) + 496 z(2,12) + 417 z(2,13) + 379 z(2,14)
      + 314 z(3,4) + 788 z(3,5) + 450 z(3,6) + 506 z(3,7) + 547 z(3,8)
      + 701 z(3,9) + 927 z(3,10) + 720 z(3,11) + 342 z(3,12) + 525 z(3,13)
      + 211 z(3,14) + 491 z(4,5) + 265 z(4,6) + 410 z(4,7) + 664 z(4,8)
      + 804 z(4,9) + 1070 z(4,10) + 831 z(4,11) + 239 z(4,12) + 499 z(4,13)
      + 286 z(4,14) + 400 z(5,6) + 514 z(5,7) + 902 z(5,8) + 990 z(5,9)
      + 1261 z(5,10) + 1021 z(5,11) + 513 z(5,12) + 635 z(5,13) + 667 z(5,14)
      + 168 z(6,7) + 522 z(6,8) + 634 z(6,9) + 910 z(6,10) + 665 z(6,11)
      + 120 z(6,12) + 284 z(6,13) + 281 z(6,14) + 389 z(7,8) + 482 z(7,9)
      + 757 z(7,10) + 513 z(7,11) + 185 z(7,12) + 124 z(7,13) + 299 z(7,14)
      + 154 z(8,9) + 406 z(8,10) + 175 z(8,11) + 448 z(8,12) + 273 z(8,13)
      + 393 z(8,14) + 276 z(9,10) + 32 z(9,11) + 578 z(9,12) + 358 z(9,13)
      + 542 z(9,14) + 246 z(10,11) + 850 z(10,12) + 633 z(10,13) + 796 z(10,14)
      + 607 z(11,12) + 389 z(11,13) + 566 z(11,14) + 261 z(12,13)
      + 162 z(12,14) + 315 z(13,14)
Subject To
 degree(1):  z(1,2) + z(1,3) + z(1,4) + z(1,5) + z(1,6) + z(1,7) + z(1,8)
             + z(1,9) + z(1,10) + z(1,11) + z(1,12) + z(1,13) + z(1,14)  = 2
 degree(2):  z(1,2) + z(2,3) + z(2,4) + z(2,5) + z(2,6) + z(2,7) + z(2,8)
             + z(2,9) + z(2,10) + z(2,11) + z(2,12) + z(2,13) + z(2,14)  = 2
 degree(3):  z(1,3) + z(2,3) + z(3,4) + z(3,5) + z(3,6) + z(3,7) + z(3,8)
             + z(3,9) + z(3,10) + z(3,11) + z(3,12) + z(3,13) + z(3,14)  = 2
 degree(4):  z(1,4) + z(2,4) + z(3,4) + z(4,5) + z(4,6) + z(4,7) + z(4,8)
             + z(4,9) + z(4,10) + z(4,11) + z(4,12) + z(4,13) + z(4,14)  = 2
 degree(5):  z(1,5) + z(2,5) + z(3,5) + z(4,5) + z(5,6) + z(5,7) + z(5,8)
             + z(5,9) + z(5,10) + z(5,11) + z(5,12) + z(5,13) + z(5,14)  = 2
 degree(6):  z(1,6) + z(2,6) + z(3,6) + z(4,6) + z(5,6) + z(6,7) + z(6,8)
             + z(6,9) + z(6,10) + z(6,11) + z(6,12) + z(6,13) + z(6,14)  = 2
 degree(7):  z(1,7) + z(2,7) + z(3,7) + z(4,7) + z(5,7) + z(6,7) + z(7,8)
             + z(7,9) + z(7,10) + z(7,11) + z(7,12) + z(7,13) + z(7,14)  = 2
 degree(8):  z(1,8) + z(2,8) + z(3,8) + z(4,8) + z(5,8) + z(6,8) + z(7,8)
             + z(8,9) + z(8,10) + z(8,11) + z(8,12) + z(8,13) + z(8,14)  = 2
 degree(9):  z(1,9) + z(2,9) + z(3,9) + z(4,9) + z(5,9) + z(6,9) + z(7,9)
             + z(8,9) + z(9,10) + z(9,11) + z(9,12) + z(9,13) + z(9,14)  = 2
 degree(10): z(1,10) + z(2,10) + z(3,10) + z(4,10) + z(5,10) + z(6,10)
             + z(7,10) + z(8,10) + z(9,10) + z(10,11) + z(10,12) + z(10,13)
             + z(10,14)  = 2
 degree(11): z(1,11) + z(2,11) + z(3,11) + z(4,11) + z(5,11) + z(6,11)
             + z(7,11) + z(8,11) + z(9,11) + z(10,11) + z(11,12) + z(11,13)
             + z(11,14)  = 2
 degree(12): z(1,12) + z(2,12) + z(3,12) + z(4,12) + z(5,12) + z(6,12)
             + z(7,12) + z(8,12) + z(9,12) + z(10,12) + z(11,12) + z(12,13)
             + z(12,14)  = 2
 degree(13): z(1,13) + z(2,13) + z(3,13) + z(4,13) + z(5,13) + z(6,13)
             + z(7,13) + z(8,13) + z(9,13) + z(10,13) + z(11,13) + z(12,13)
             + z(13,14)  = 2
 degree(14): z(1,14) + z(2,14) + z(3,14) + z(4,14) + z(5,14) + z(6,14)
             + z(7,14) + z(8,14) + z(9,14) + z(10,14) + z(11,14) + z(12,14)
             + z(13,14)  = 2
 c15:        z(1,2) + z(1,8) + z(2,8) <= 2
 c16:        z(9,10) + z(9,11) + z(10,11) <= 2
 c17:        z(3,4) + z(3,5) + z(3,6) + z(3,7) + z(3,12) + z(3,13) + z(3,14)
             + z(4,5) + z(4,6) + z(4,7) + z(4,12) + z(4,13) + z(4,14) + z(5,6)
             + z(5,7) + z(5,12) + z(5,13) + z(5,14) + z(6,7) + z(6,12)
             + z(6,13) + z(6,14) + z(7,12) + z(7,13) + z(7,14) + z(12,13)
             + z(12,14) + z(13,14) <= 7
Bounds
 0 <= z(1,2) <= 1
 0 <= z(1,3) <= 1
 0 <= z(1,4) <= 1
 0 <= z(1,5) <= 1
 0 <= z(1,6) <= 1
 0 <= z(1,7) <= 1
 0 <= z(1,8) <= 1
 0 <= z(1,9) <= 1
 0 <= z(1,10) <= 1
 0 <= z(1,11) <= 1
 0 <= z(1,12) <= 1
 0 <= z(1,13) <= 1
 0 <= z(1,14) <= 1
 0 <= z(2,3) <= 1
 0 <= z(2,4) <= 1
 0 <= z(2,5) <= 1
 0 <= z(2,6) <= 1
 0 <= z(2,7) <= 1
 0 <= z(2,8) <= 1
 0 <= z(2,9) <= 1
 0 <= z(2,10) <= 1
 0 <= z(2,11) <= 1
 0 <= z(2,12) <= 1
 0 <= z(2,13) <= 1
 0 <= z(2,14) <= 1
 0 <= z(3,4) <= 1
 0 <= z(3,5) <= 1
 0 <= z(3,6) <= 1
 0 <= z(3,7) <= 1
 0 <= z(3,8) <= 1
 0 <= z(3,9) <= 1
 0 <= z(3,10) <= 1
 0 <= z(3,11) <= 1
 0 <= z(3,12) <= 1
 0 <= z(3,13) <= 1
 0 <= z(3,14) <= 1
 0 <= z(4,5) <= 1
 0 <= z(4,6) <= 1
 0 <= z(4,7) <= 1
 0 <= z(4,8) <= 1
 0 <= z(4,9) <= 1
 0 <= z(4,10) <= 1
 0 <= z(4,11) <= 1
 0 <= z(4,12) <= 1
 0 <= z(4,13) <= 1
 0 <= z(4,14) <= 1
 0 <= z(5,6) <= 1
 0 <= z(5,7) <= 1
 0 <= z(5,8) <= 1
 0 <= z(5,9) <= 1
 0 <= z(5,10) <= 1
 0 <= z(5,11) <= 1
 0 <= z(5,12) <= 1
 0 <= z(5,13) <= 1
 0 <= z(5,14) <= 1
 0 <= z(6,7) <= 1
 0 <= z(6,8) <= 1
 0 <= z(6,9) <= 1
 0 <= z(6,10) <= 1
 0 <= z(6,11) <= 1
 0 <= z(6,12) <= 1
 0 <= z(6,13) <= 1
 0 <= z(6,14) <= 1
 0 <= z(7,8) <= 1
 0 <= z(7,9) <= 1
 0 <= z(7,10) <= 1
 0 <= z(7,11) <= 1
 0 <= z(7,12) <= 1
 0 <= z(7,13) <= 1
 0 <= z(7,14) <= 1
 0 <= z(8,9) <= 1
 0 <= z(8,10) <= 1
 0 <= z(8,11) <= 1
 0 <= z(8,12) <= 1
 0 <= z(8,13) <= 1
 0 <= z(8,14) <= 1
 0 <= z(9,10) <= 1
 0 <= z(9,11) <= 1
 0 <= z(9,12) <= 1
 0 <= z(9,13) <= 1
 0 <= z(9,14) <= 1
 0 <= z(10,11) <= 1
 0 <= z(10,12) <= 1
 0 <= z(10,13) <= 1
 0 <= z(10,14) <= 1
 0 <= z(11,12) <= 1
 0 <= z(11,13) <= 1
 0 <= z(11,14) <= 1
 0 <= z(12,13) <= 1
 0 <= z(12,14) <= 1
 0 <= z(13,14) <= 1
Generals
 z(1,2)  z(1,3)  z(1,4)  z(1,5)  z(1,6)  z(1,7)  z(1,8)  z(1,9)  z(1,10) 
 z(1,11)  z(1,12)  z(1,13)  z(1,14)  z(2,3)  z(2,4)  z(2,5)  z(2,6)  z(2,7) 
 z(2,8)  z(2,9)  z(2,10)  z(2,11)  z(2,12)  z(2,13)  z(2,14)  z(3,4)  z(3,5) 
 z(3,6)  z(3,7)  z(3,8)  z(3,9)  z(3,10)  z(3,11)  z(3,12)  z(3,13)  z(3,14) 
 z(4,5)  z(4,6)  z(4,7)  z(4,8)  z(4,9)  z(4,10)  z(4,11)  z(4,12)  z(4,13) 
 z(4,14)  z(5,6)  z(5,7)  z(5,8)  z(5,9)  z(5,10)  z(5,11)  z(5,12)  z(5,13) 
 z(5,14)  z(6,7)  z(6,8)  z(6,9)  z(6,10)  z(6,11)  z(6,12)  z(6,13)  z(6,14) 
 z(7,8)  z(7,9)  z(7,10)  z(7,11)  z(7,12)  z(7,13)  z(7,14)  z(8,9)  z(8,10) 
 z(8,11)  z(8,12)  z(8,13)  z(8,14)  z(9,10)  z(9,11)  z(9,12)  z(9,13) 
 z(9,14)  z(10,11)  z(10,12)  z(10,13)  z(10,14)  z(11,12)  z(11,13)  z(11,14) 
 z(12,13)  z(12,14)  z(13,14) 
End
